user_number,punk_id
1,sillytun‚Ä¶
2,0x1915d2
3,0x950012
4,0x2cbee4
5,0x35388c
6,0xc352b5
7,MBK
8,
9,0x717403
10,0x6611fe
11,0xe34bde
12,0xa858dd
13,WrappedC‚Ä¶
14,milliond‚Ä¶
15,0xfd9065
16,Ravachol
17,0x7760e0
18,punksotc‚Ä¶
19,vdp.eth
20,0x3d19c6
21,0xe369a8
22,0x338fd1
23,Pranksy
24,Dude_Nak‚Ä¶
25,Snowfro
26,0x00bd3a
27,0xcb436c
28,0x4e0030
29,Debonair‚Ä¶
30,0x363646
31,publicim‚Ä¶
32,0x4a2515
33,0xd7d323
34,vault.pu‚Ä¶
35,0x762ec7
36,0xcfd9cc
37,0x863051
38,ndot.eth
39,hot.robe‚Ä¶
40,0x2a54c8
41,robert.c‚Ä¶
42,yeastydo‚Ä¶
43,0xf60fc1
44,0xdf985c
45,metadiab‚Ä¶
46,kithlive‚Ä¶
47,0x5ad2d7
48,fridso.e‚Ä¶
49,0xeec5cb
50,thegoodo‚Ä¶
51,cye.eth
52,2.punkso‚Ä¶
53,cryptocr‚Ä¶
54,0xe4bb5b
55,pwn.eth
56,0x0f61eb
57,0xe0cc6a
58,buypunks‚Ä¶
59,0x18c779
60,0x8a1c05
61,0xaf9683
62,0x90ed4d
63,0xd7510a
64,0xaeb86a
65,0xa5f05c
66,0x650dcd
67,0x24e267
68,0xe664f5
69,abx.eth
70,seel.eth
71,0x590fa8
72,0x3d368a
73,kirinpar‚Ä¶
74,cryptoke‚Ä¶
75,0x62bdc6
76,Zonked
77,punksded‚Ä¶
78,0x8b35a8
79,‚Äô7‚Äô.eth
80,0xe281b9
81,0x3e9dac
82,punks.jm‚Ä¶
83,punkpist‚Ä¶
84,0xbdaa17
85,showthep‚Ä¶
86,ark1
87,teejayor‚Ä¶
88,spritzlo‚Ä¶
89,kevallin‚Ä¶
90,mysha
91,daddykal‚Ä¶
92,barcella‚Ä¶
93,pablopun‚Ä¶
94,Slats_et‚Ä¶
95,Party
96,Carlini8
97,0x0601d0
98,0x31a5ff
99,0xbb1ec7
100,DANNY
101,0x3fb537
102,0x8e03f4
103,0x1cf2b8
104,0x3e009c
105,0x6fec47
106,barthazi‚Ä¶
107,thebinoc‚Ä¶
108,sov
109,sovpunk.‚Ä¶
110,0x51636d
111,fountain‚Ä¶
112,0x95b9f6
113,0x4d8e16
114,0x294674
115,0x4deb22
116,0x61fef9
117,0xc16dc6
118,0x05d207
119,0x73a6a0
120,j0nnym0.‚Ä¶
121,sumrtime‚Ä¶
122,0xb155c5
123,TokenAng‚Ä¶
124,0xfea863
125,0x68113d
126,0x65e4e2
127,0xc1f989
128,0xe3c165
129,0x67954a
130,punk8o8.‚Ä¶
131,0x065a5b
132,0xcc46ef
133,cygninae‚Ä¶
134,0xea8bf9
135,ethie.et‚Ä¶
136,0x2fb1a2
137,0x19a41f
138,0xe668eb
139,colether‚Ä¶
140,0x1e5aeb
141,autobody‚Ä¶
142,misterto‚Ä¶
143,mrussl.e‚Ä¶
144,0x1a4d11
145,0x65ba4f
146,0x023367
147,0xc9b7f8
148,csaw-nft‚Ä¶
149,csaw.eth
150,andre.et‚Ä¶
151,0x096abb
152,0x53f2a3
153,jaindl.e‚Ä¶
154,0x7be6e9
155,cryptore‚Ä¶
156,vault.re‚Ä¶
157,0x1c0c4e
158,0x3a051f
159,maxnaut.‚Ä¶
160,phoenix.‚Ä¶
161,0xa51492
162,0x16badb
163,0x3d0f7f
164,0xb0182a
165,deployer‚Ä¶
166,nftboi.p‚Ä¶
167,runhot99‚Ä¶
168,0xb73d34
169,0x05f3eb
170,0x758acc
171,0x9a7321
172,0x5cb82c
173,0xebc8ff
174,0xa34d2d
175,tomjohn.‚Ä¶
176,anonymou‚Ä¶
177,apemode.‚Ä¶
178,0xae21e3
179,0x0e9aed
180,0x4c9692
181,0xe3bf86
182,imaginat‚Ä¶
183,0xff70ec
184,MrTpunks
185,0x7131a7
186,0x702a39
187,0x5fb6e7
188,ykm.eth
189,needsmor‚Ä¶
190,0x8c6e56
191,vault.ve‚Ä¶
192,garyvaul‚Ä¶
193,0x5ea968
194,0x0120b4
195,xbenjami‚Ä¶
196,comfydev‚Ä¶
197,0xc4b9d2
198,jayrittb‚Ä¶
199,jhyan.et‚Ä¶
200,ky1.eth
201,giunti.e‚Ä¶
202,bb229.et‚Ä¶
203,0xf411c2
204,brkfst.e‚Ä¶
205,0x60ceef
206,0x5668ca
207,0x86292f
208,0xf18fce
209,0x984345
210,0xdcf227
211,0xf3016b
212,Deeze
213,whiterab‚Ä¶
214,VonMises
215,0x8618d4
216,beautyan‚Ä¶
217,kickpost‚Ä¶
218,0x11ac30
219,0x58164b
220,0x1d1e69
221,0x8e2328
222,0x2238c8
223,0x2f8a61
224,0x2666cb
225,jmg
226,0x7f3560
227,0x976b59
228,0xd8e806
229,0xef3dff
230,0x29b1b2
231,0x05083f
232,0x99a594
233,0xa03c16
234,0x1121f2
235,0x7a87ca
236,0x7cd222
237,008.eth
238,spriest.‚Ä¶
239,xeer.eth
240,0xd320d7
241,0x4ed2f6
242,tmeng.et‚Ä¶
243,hotwiche‚Ä¶
244,0xcc2a85
245,0x51eac3
246,bewd.eth
247,0x86e5ea
248,0x117026
249,0x04686d
250,redlione‚Ä¶
251,0x5f2bdf
252,0x87d61b
253,0x100a74
254,mbl267.e‚Ä¶
255,0xb4d8b8
256,0x33c265
257,0xb5cae9
258,0x3437cf
259,uprush.e‚Ä¶
260,Faceless‚Ä¶
261,0x0a4eaf‚Ä¶
262,üñïüñïüñï.e‚Ä¶
263,0x777777
264,evasion.‚Ä¶
265,681.eth
266,0x0938df
267,sothebys‚Ä¶
268,0x47faf1
269,0x2e675e
270,0xff4c60
271,0xeb6599
272,dereklin‚Ä¶
273,wookie.e‚Ä¶
274,0x9798a6
275,CPyrc
276,dcinvest‚Ä¶
277,0xce6259
278,0x0654ef
279,0xfb47b2
280,0xfbd672
281,0x559ff3
282,0xcb7624
283,0xc08be1
284,0xbea00d
285,sexpunks‚Ä¶
286,0xc4e028
287,OnlyToas‚Ä¶
288,0x5815c2
289,0x5fdfc5
290,0x321c09
291,0xd80c8c
292,0xd24365
293,0x587337
294,0x5b7645
295,0x518aa2
296,0x257e2b
297,0x471ccd
298,0xedec6a
299,ryley-o.‚Ä¶
300,krybhara‚Ä¶
301,mani.eth
302,0x5d7c72
303,ape5155.‚Ä¶
304,0x9963be
305,0x13d3fb
306,0x542d53
307,0x822335
308,0x147027
309,0x4f65e5
310,0xab7244
311,0x0d1070
312,gobzy.et‚Ä¶
313,Blaze310
314,Novo311
315,0x6c42fd
316,newhodle‚Ä¶
317,punksnip‚Ä¶
318,subbo.et‚Ä¶
319,fancyfre‚Ä¶
320,0x79bc17
321,0x5fbef9
322,0x5e7917
323,deepak.e‚Ä¶
324,0x3300ea
325,0x054bda
326,0x4cf28b
327,polarvau‚Ä¶
328,0x8a5a3c
329,trippy.e‚Ä¶
330,0xe54c39
331,beautifu‚Ä¶
332,0xf117ef
333,0x75ce24
334,0xc385e9
335,0xed01f8
336,0xcbb9ab
337,0xcf9441
338,0x319aae
339,0x77de34
340,inshalla‚Ä¶
341,0xa54936
342,0xa66f42
343,0x269616
344,üçéüçéüçé.e‚Ä¶
345,0xb17cf8
346,kingskin‚Ä¶
347,KingChad
348,0x02a648
349,0x07f537
350,0xd47c5f
351,0x011e44
352,stefan
353,LoveArtH‚Ä¶
354,protospi‚Ä¶
355,0x00817a
356,TokyoBas‚Ä¶
357,0xddd0e9
358,0xdaacb2
359,nicholas‚Ä¶
360,mintelan‚Ä¶
361,0x15235f
362,0x6add24
363,amir.eth
364,0x65b1b9
365,litricoi‚Ä¶
366,0xe4f0ac
367,0x89eacd
368,snax
369,0x07c5ea
370,0x13816f
371,0x3ee18f
372,sartoshi‚Ä¶
373,0xbae25a
374,0x1011ce
375,boy.eth
376,toastdea‚Ä¶
377,velpanur‚Ä¶
378,bsy.eth
379,0x88fe14
380,0xd120cf
381,0x64c455
382,0xd5509e
383,0x97db27
384,heygaret‚Ä¶
385,satoshi-‚Ä¶
386,0x0c2f65
387,lennard.‚Ä¶
388,geo.eth
389,0x6b43ab
390,0x87f806
391,biddecli‚Ä¶
392,0xddfdcb
393,0x449c69
394,mr-xiao.‚Ä¶
395,hullofre‚Ä¶
396,0xae7721
397,laz.eth
398,0x05dfd4
399,0xa5b139
400,0xbfa319
401,0x7f91e7
402,punks.of‚Ä¶
403,fumbledt‚Ä¶
404,cold.415‚Ä¶
405,0x5e43e1
406,0x0e4437
407,j1mmy
408,0xa0a59c
409,casey.et‚Ä¶
410,0x14e946
411,0xcb84f3
412,mzm.eth
413,0x59b72f
414,0x15741c
415,0x1424d2
416,0x6b9b01
417,0xbff231
418,0x38ab26
419,0xcb34a2
420,backseat‚Ä¶
421,mint.ptm‚Ä¶
422,punk7487‚Ä¶
423,0x5c59aa
424,0xdc65f8
425,franklin‚Ä¶
426,ÂπøÂëä‰ΩçÊãõÂïÜ.et‚Ä¶
427,0xe51efa
428,0x7d8a84
429,phunksot‚Ä¶
430,snoopalo‚Ä¶
431,0x72622e
432,0xb0cf9d
433,joebiden‚Ä¶
434,0x5243cb
435,0x0d7f8b
436,0xba585c
437,flim.eth
438,flimm.et‚Ä¶
439,sherbs.e‚Ä¶
440,riess.et‚Ä¶
441,0xa698ca
442,0x3cd607
443,coopdala‚Ä¶
444,senorkar‚Ä¶
445,0x776758
446,0xa9f929
447,0xb98af2
448,0xe469ef
449,copthor.‚Ä¶
450,0xeb63ee
451,path.eth
452,preferit‚Ä¶
453,devanh
454,0x7d9a8c
455,0xc7c6b9
456,0x052ffe
457,AZonneve‚Ä¶
458,vombatus‚Ä¶
459,ü§∑üèª‚Äç‚ôÇ.e‚Ä¶
460,0x2be665
461,thecitad‚Ä¶
462,0xd31587
463,0x810fdb
464,0x67198b
465,coldgg.e‚Ä¶
466,simoneve‚Ä¶
467,balvarid‚Ä¶
468,0x0d82eb
469,bensharf‚Ä¶
470,0x577ebc
471,quantbik‚Ä¶
472,0xa42964
473,0x911c4b
474,0x19e358
475,0xd75d10
476,0x045f70
477,0x1cbb87
478,0x7962e7
479,0x9d5eb0
480,ariea.et‚Ä¶
481,0x51d37f
482,0xcfc505
483,manhoos.‚Ä¶
484,0x28ca88
485,0x483ec3
486,0x4dcaf3
487,wikdst.e‚Ä¶
488,geebz.et‚Ä¶
489,0x00d7c9
490,0x8b338b
491,0xd882ef
492,0xba2185
493,noone0x.‚Ä¶
494,0x4a378d
495,0x163e10
496,0x326633
497,0x24d1b6
498,0x13cff9
499,ghodl.et‚Ä¶
500,0x64c495
501,bitreyno‚Ä¶
502,zincity.‚Ä¶
503,0x60417d
504,0x93d6d6
505,allornot‚Ä¶
506,0x033b8f
507,0xbf8afa
508,0x983ace
509,0x7e1de5
510,0xb70c1a
511,natealex
512,scalynel‚Ä¶
513,0xfeeb2d
514,nedim.et‚Ä¶
515,0xa6c25a
516,0x1437d2
517,0x7c5aee
518,BlackKet‚Ä¶
519,jamuelsa‚Ä¶
520,akii
521,0x1fe03a
522,0xa0452c
523,0x3db31f
524,0x2cc8b0
525,0x0a3510
526,spritzva‚Ä¶
527,bluewate‚Ä¶
528,ethblowe‚Ä¶
529,dedpunks‚Ä¶
530,gfunk.et‚Ä¶
531,cymbalda‚Ä¶
532,jumal.et‚Ä¶
533,0x538285
534,0x073793
535,0xd2c1a0
536,bottles
537,0x5b098b
538,0x5a2598
539,Leduc
540,0xad2bf4
541,0x4d0730
542,0xb01079
543,0xf60585
544,0xd9e89f
545,0xc96de7
546,0x2560b0
547,0x3c0d7b
548,0x0a846c
549,0xc399f6
550,horakhty‚Ä¶
551,0x7d56f0
552,0xba6ef0
553,0xc8eed3
554,0x2eb5d4
555,0x0b8ee2
556,mrpopo.e‚Ä¶
557,0x670819
558,0x3fce52
559,0xa9ffa0
560,0xdb8ee8
561,0x85560d
562,0x76fb2e
563,0x2cd808
564,0x79457a
565,0x5aa688
566,0x3d8680
567,0x631b2b
568,nodemode‚Ä¶
569,0x0f40e3
570,0xb16386
571,0x0b7059
572,0x1455f0
573,Myph-Spa‚Ä¶
574,billbras‚Ä¶
575,0xb6de55
576,0x63ba2a
577,0x32bbad
578,0xb1fc63
579,vistaglo‚Ä¶
580,vis.eth
581,0x8eea79
582,craigory‚Ä¶
583,0x50476d
584,0xb4c38e
585,0x9225ae
586,0x0d7646
587,ventum.e‚Ä¶
588,0xd5b36e
589,0x2382af
590,lmpostor‚Ä¶
591,azpunks.‚Ä¶
592,amun-ra.‚Ä¶
593,0xd62483
594,0x44d93e
595,ddaavvee
596,antunes_‚Ä¶
597,TweetyPi‚Ä¶
598,ethmania‚Ä¶
599,longling‚Ä¶
600,0xf29b55
601,0x2a53bc
602,defibria‚Ä¶
603,gbk.eth
604,0xab7deb
605,0xc2a8c8
606,0xfb325e
607,0x70592a
608,0x7f351f
609,0xcec3dc
610,thefalle‚Ä¶
611,xaix.eth
612,0x3ba9cd
613,0x568cf5
614,0xaadfe3
615,chefpier‚Ä¶
616,0x975779
617,0x7e9f74
618,0x29f1ab
619,0x4ff419
620,0xc7660c
621,0x9634c6
622,0x1b5038
623,0x3da409
624,0xfd71c1
625,0x3fc4a7
626,0xef3f3e
627,0x78e96b
628,0x12382b
629,glazin.e‚Ä¶
630,0xd3fc25
631,0x5f652f
632,0xaf5d3d
633,0x0256c2
634,0xee3e55
635,lahf.eth
636,swagonom‚Ä¶
637,0x9e6483
638,0xfad832
639,0x7d9e9a
640,0x8e564e
641,0xb9fba8
642,0xd2e358
643,98898.et‚Ä¶
644,0xf97b0b
645,metakid
646,0xff349a
647,0xf1a9ea
648,zymerce.‚Ä¶
649,0x6dacf4
650,0x231d68
651,chomper.‚Ä¶
652,0xf7a657
653,jfellz.e‚Ä¶
654,3448.eth
655,fatloott‚Ä¶
656,0x1b3321
657,0xee707d
658,0x6ff0be
659,0xce18b6
660,0xd4442b
661,chrisbel‚Ä¶
662,0xcbbc7b
663,0x596572
664,johnhend‚Ä¶
665,compromi‚Ä¶
666,0x8ee9e0
667,0x8ba68c
668,0x12b732
669,0xb4460b
670,0xcbeb96
671,zonted
672,slm.eth
673,0xa7eba7
674,0x2707b4
675,0x99466e
676,0x574797
677,wahoowaa‚Ä¶
678,0x08b571
679,charles8‚Ä¶
680,yeyo.eth
681,tonyherr‚Ä¶
682,chaparro‚Ä¶
683,tsf.eth
684,0x57d488
685,0x7fd258
686,0xe48a11
687,laggy.et‚Ä¶
688,0x84118d
689,0x74be0a
690,pixelhas‚Ä¶
691,0x90b60b
692,0x729be1
693,punk450.‚Ä¶
694,debozoso‚Ä¶
695,0xf05639
696,purpleca‚Ä¶
697,0x4551fd
698,point-gr‚Ä¶
699,0x2b8522
700,0x032552
701,iacove.e‚Ä¶
702,disco.et‚Ä¶
703,0xee433c
704,p-azuro.‚Ä¶
705,0x3deed9
706,0x98bea9
707,444.eth
708,4567.eth
709,biggamej‚Ä¶
710,0x43f69d
711,0x174610
712,0xf72cf7
713,0x36d1b7
714,parttty6
715,0x0e5eba
716,0x7bef86
717,0x3cf9a2
718,0x77f33d
719,0x84d34f
720,0x0091d8
721,0xd8f12b
722,0x89cd4a
723,0x48db19
724,vault.ma‚Ä¶
725,mabu.eth
726,0x1c9ae1
727,0x9405c1
728,golian.e‚Ä¶
729,0xbcda18
730,0x36e629
731,valleypu‚Ä¶
732,stazie
733,simona.e‚Ä¶
734,0x753b20
735,0x0eb1fe
736,0x280bf6
737,0x51da41
738,deafbeef‚Ä¶
739,0x001e7c
740,0x8be6ad
741,0xc5b066
742,tappy.et‚Ä¶
743,0x64756a
744,0x65fc50
745,0xb7f7bb
746,avarice.‚Ä¶
747,artofthe‚Ä¶
748,0x609630
749,0xda2d29
750,0xbb4298
751,omz.eth
752,naterive‚Ä¶
753,0xd7eae9
754,0xb13a60
755,Meee
756,0xbbdc44
757,0x13a494
758,0x0bcdf5
759,0x021787
760,0x675457
761,0x2d6f4a
762,0x3c5c66
763,0x18d710
764,0x6de3e8
765,envision‚Ä¶
766,panico.e‚Ä¶
767,youwontd‚Ä¶
768,007f9d.e‚Ä¶
769,0x49d20f
770,0xrodo.e‚Ä¶
771,alexx.et‚Ä¶
772,0x4b7c94
773,0x9fce8e
774,0xb9fddb
775,petitcai‚Ä¶
776,Korniej
777,0x095c8e
778,0x829eca
779,0x629000
780,twmatt.e‚Ä¶
781,died.eth
782,0x8fe0e6
783,0x963331
784,MadMax
785,0xcbaf72
786,0x484c6d
787,0x7107fc
788,newyorks‚Ä¶
789,deutschl‚Ä¶
790,vip66.et‚Ä¶
791,0x63c0ec
792,0x81d910
793,0xfa68b4
794,chanes.e‚Ä¶
795,0xe14449
796,0x3e5cbb
797,0xde0b9c
798,Ariba400‚Ä¶
799,bigp0ppa‚Ä¶
800,CryptoSm‚Ä¶
801,Hans
802,0x0166ab
803,0xhcy.et‚Ä¶
804,0xe8f48e
805,kenl.eth
806,oldschoo‚Ä¶
807,0xd7047c
808,shitcoin‚Ä¶
809,0x289a0e
810,punktrad‚Ä¶
811,cistron.‚Ä¶
812,0xf25e63
813,fuckmoon‚Ä¶
814,0x3471a1
815,thehundr‚Ä¶
816,merp.eth
817,fvck.eth
818,0xaafbfc
819,cryptopu‚Ä¶
820,0x7adb22
821,0xa2dcba
822,artie-th‚Ä¶
823,owlman.e‚Ä¶
824,norcalgu‚Ä¶
825,lander
826,Decentra‚Ä¶
827,Lander
828,0x9cd85c
829,0x237685
830,0x541d7b
831,0x0b88fd
832,Hemba
833,0x9be1c7
834,0x5ab84f
835,westcoas‚Ä¶
836,0x099023
837,carrythe‚Ä¶
838,metajoke‚Ä¶
839,somewher‚Ä¶
840,0x8b087f
841,starfall‚Ä¶
842,0x6336fb
843,0x1b5196
844,0x0aabb5
845,0x22ec2b
846,0xd2ba87
847,0xb2ee42
848,wallstre‚Ä¶
849,spencerv‚Ä¶
850,0x8c97cf
851,velinova‚Ä¶
852,0x00b278
853,max-powe‚Ä¶
854,0xf2907a
855,0xd79165
856,renaissa‚Ä¶
857,0x27c79a
858,BigF4581‚Ä¶
859,GoWest23
860,1.curate‚Ä¶
861,0x9eedbf
862,casually‚Ä¶
863,0x930af7
864,rarevers‚Ä¶
865,sad.eth
866,0x0779fa
867,hot.izeb‚Ä¶
868,0x1fca36
869,0x0d8040
870,0xf5bd2e
871,0x0704c9
872,0x455464
873,genomic.‚Ä¶
874,0x8814c8
875,0x565496
876,007
877,0x13bd39
878,0x14590d
879,punk3770‚Ä¶
880,0xdadad9
881,firasfa.‚Ä¶
882,longestv‚Ä¶
883,0x8fd581
884,0x2ea576
885,0x691b87
886,0xeb725f
887,0x6b3e41
888,juliana.‚Ä¶
889,Alley
890,0x02fef8
891,0x5f1c52
892,0xf1750f
893,mshadows‚Ä¶
894,0x51d858
895,0x67edd0
896,pingu.et‚Ä¶
897,0x143418
898,0x00e7b1
899,0xe71df2
900,0xea7738
901,0x233d61
902,0xe50a6c
903,psycho.e‚Ä¶
904,0x36d636
905,be90.eth
906,0x7a5e0b
907,floordao‚Ä¶
908,0x83c8f2
909,dbrown-v‚Ä¶
910,dbrown.e‚Ä¶
911,shilpixe‚Ä¶
912,0xe121d3
913,impaler.‚Ä¶
914,0x75bb8e
915,0xb4bb41
916,tlpqgz6j‚Ä¶
917,0x93d020
918,0x2feb6c
919,0x777bbe
920,0x16b92a
921,0x7fb502
922,homeless‚Ä¶
923,kalaga.e‚Ä¶
924,0x0bdf77
925,0xf4d89c
926,0x004b28
927,0x3efe8b
928,0x6d5f1f
929,0xf80ff7
930,0x9c7f37
931,otisweal‚Ä¶
932,drewaust‚Ä¶
933,otisx.et‚Ä¶
934,0xca731f
935,0xbc7279
936,0xa98850
937,0xdfc055
938,0xb35e6b
939,0xe0265b
940,pinkiepi‚Ä¶
941,0x0c4b13
942,chedli.e‚Ä¶
943,0x01bbfe
944,0xf2b311
945,0x5b5af4
946,0x9b35db
947,0x59dfbe
948,Nalesnik‚Ä¶
949,0x2c5ada
950,Tschuuul‚Ä¶
951,0xd0d318
952,0x3c0872
953,bmoneysh‚Ä¶
954,0x0fc584
955,0xdd23ab
956,0x886bdd
957,0xaae8c5
958,0x78b58e
959,0x29664e
960,camillo.‚Ä¶
961,punk3988‚Ä¶
962,0xf1b658
963,Cry
964,0xc272ed
965,casualst‚Ä¶
966,0xdc25e8
967,off.eth
968,0xbc668f
969,0xdcf752
970,vault.0x‚Ä¶
971,b1ake.et‚Ä¶
972,0x0ca77d
973,0x820ed5
974,0xe30161
975,peted.et‚Ä¶
976,kennysto‚Ä¶
977,0xb4c151
978,0x98f8f5
979,0xbfd8cb
980,maxtrix.‚Ä¶
981,hillbill‚Ä¶
982,0x4687e9
983,0x812b4e
984,0x564913
985,afropunk‚Ä¶
986,0xbfc138
987,0xdfa6e4
988,0x346693
989,0x4680cb
990,0x18ee9c
991,0xd1e70f
992,peruggia‚Ä¶
993,0xaa3851
994,0x6f8098
995,0x6130d3
996,0xe75021
997,0x42306d
998,krakoa.e‚Ä¶
999,0x596d70
1000,0xa11b22
1001,0x805e36
1002,0xbd302b
1003,0xae016c
1004,0xe4d825
1005,0xf019b2
1006,antagoni‚Ä¶
1007,0x775db6
1008,tiernan.‚Ä¶
1009,tappyhot‚Ä¶
1010,yeew.eth
1011,0xa892ab
1012,0xde3df7
1013,snowyowl‚Ä¶
1014,0xfdcd64
1015,0xa3a0b0
1016,skyquake‚Ä¶
1017,0xb8470a
1018,0xdf612c
1019,0x36fbd8
1020,0x3dee68
1021,0xaf5fc2
1022,0xf8fc36
1023,0xc58468
1024,vault.mo‚Ä¶
1025,0x013335
1026,üî•ü§òüî•.e‚Ä¶
1027,0x65e7ea
1028,usdex.et‚Ä¶
1029,0xc66b8d
1030,0x1e5fe5
1031,0xdde0b7
1032,0xfeeb8c
1033,0xc55607
1034,bitshame‚Ä¶
1035,0xa3b6e1
1036,ohl.eth
1037,cug.eth
1038,0xac768d
1039,0x7e455c
1040,0x84c920
1041,0x023ef7
1042,0x79348e
1043,robertth‚Ä¶
1044,0x05e5db
1045,0xa1b0fb
1046,0xaa9365
1047,thatsmy.‚Ä¶
1048,0x230cef
1049,0x8a9f4a
1050,0x1845e3
1051,0xb4079f
1052,0x18a865
1053,tiafb.et‚Ä¶
1054,0x581e24
1055,pier1.et‚Ä¶
1056,0xcb8172
1057,0x5cfff5
1058,0x62d2ce
1059,0xbcb8c5
1060,0xc05488
1061,0xadc229
1062,0xcd2c6.‚Ä¶
1063,Devil_et‚Ä¶
1064,0x968850
1065,0x10e2cf
1066,0xe9d43c
1067,0x90078d
1068,0x3bfc0f
1069,0x4ad082
1070,0x433f6a
1071,0x6e404d
1072,0x2cae14
1073,mindfool‚Ä¶
1074,whydidyo‚Ä¶
1075,0x2d2d2a
1076,0x2117c3
1077,0x7e5adb
1078,0x733320
1079,nonfungi‚Ä¶
1080,0xb10004
1081,0xa3280e
1082,0x1387f6
1083,0xd97a2f
1084,0x142ae8
1085,silentga‚Ä¶
1086,jester88‚Ä¶
1087,0x35b8d2
1088,0x156189
1089,0x1eb03b
1090,zisejoe.‚Ä¶
1091,0x9bf809
1092,0xedd88c
1093,obvio.et‚Ä¶
1094,evanss6.‚Ä¶
1095,0x0b4338
1096,0x7b21a8
1097,0xe810f9
1098,0x4a3473
1099,0x22ba2f
1100,0x7465ef
1101,0xe44641
1102,0xa618c6
1103,0xd94be5
1104,boblouka‚Ä¶
1105,0x3364f3
1106,0x6500c0
1107,0x4eb676
1108,0x8eb5fb
1109,0x5ed433
1110,0x7dd270
1111,0x017620
1112,0x285ce8
1113,artcolle‚Ä¶
1114,0x93745b
1115,0x0c86e2
1116,0x70ca0f
1117,0x4c02b8
1118,0x20cf73
1119,0xce5ec1
1120,punk3320‚Ä¶
1121,0xf75fcd
1122,h4x.eth
1123,0x9891e7
1124,0x2c4958
1125,0xd17f09
1126,0x9852f8
1127,0x62223c
1128,0xd1600d
1129,0xa40cbe
1130,0x1ba1cc
1131,0x1e5ce6
1132,zimagets‚Ä¶
1133,0x28c695
1134,btc-zomb‚Ä¶
1135,neo.eth
1136,alpengei‚Ä¶
1137,0xbcb6b1
1138,newells.‚Ä¶
1139,stardust‚Ä¶
1140,memeland‚Ä¶
1141,0xdc88af
1142,straybit‚Ä¶
1143,0xd3eab3
1144,0x9fd966
1145,0x2dc820
1146,0x708861
1147,0xcf9f42
1148,0xb2e609
1149,0x4e3eb7
1150,Michel_M‚Ä¶
1151,kaigani.‚Ä¶
1152,0x4eecbe
1153,koromonj‚Ä¶
1154,metamarc‚Ä¶
1155,0xaab694
1156,0xf22483
1157,comfycap‚Ä¶
1158,0xa0efdc
1159,0x478f6f
1160,0x2d3f11
1161,0x7ce2c0
1162,alaaddin‚Ä¶
1163,joanduar‚Ä¶
1164,0x1c8eb3
1165,0xd587a4
1166,0x46aff8
1167,n0b0dy.e‚Ä¶
1168,0xf5e216
1169,0xdd1347
1170,0x859614
1171,0x4c4077
1172,0x65d049
1173,0xd23700
1174,0x517fe8
1175,0xf7768d
1176,0x4960c4‚Ä¶
1177,0xdf8b1a
1178,robertk.‚Ä¶
1179,mull.eth
1180,0xf3d5e8
1181,0xb53287
1182,0xe25afa
1183,boredcha‚Ä¶
1184,0xceab29
1185,2yeah.et‚Ä¶
1186,0xebcfc0
1187,doublere‚Ä¶
1188,0x50dd57
1189,üò∂‚Äçüå´.et‚Ä¶
1190,0xb1adce
1191,0xc72aed
1192,sriramk.‚Ä¶
1193,0x7dff4d
1194,0xaf93fc
1195,0x4a9732
1196,0x19a1be
1197,0x38977b
1198,0x2fc861
1199,0x846416
1200,0xa9cdf0
1201,0x3e1e5d
1202,0x4dea06
1203,0x494508
1204,0x38b8d1
1205,0x380236
1206,0x9747d4
1207,0x47bab6
1208,keyboard‚Ä¶
1209,0x770784
1210,0x3ee133
1211,0x374bd1
1212,0xea21f0
1213,0x080615
1214,0x801b68
1215,0x69fb9d
1216,apesandp‚Ä¶
1217,aguiar.e‚Ä¶
1218,0xfaa9a0
1219,0x08c880
1220,0x464994
1221,0xea1218
1222,hcmeta.e‚Ä¶
1223,jsmr.eth
1224,0xaee2ae
1225,0xa49aee
1226,m33.eth
1227,0x1d2521
1228,blockmer‚Ä¶
1229,0x2422c0
1230,ethereum‚Ä¶
1231,ethereal‚Ä¶
1232,0x834d9b
1233,0xfce304
1234,0x533d56
1235,0xf61e45
1236,0x507bd0
1237,scrygl.e‚Ä¶
1238,rolexwat‚Ä¶
1239,lxuan.et‚Ä¶
1240,0x808450
1241,0xc45532
1242,0x030098
1243,0x914f4d
1244,0xd6a27d
1245,wahoo.et‚Ä¶
1246,0x1f52dc
1247,0x05467e
1248,0xba1994
1249,theghost‚Ä¶
1250,0xdb4df0
1251,0x7cd45f
1252,0xe85740
1253,chifoomi
1254,alphab.e‚Ä¶
1255,replicah‚Ä¶
1256,0x785d0a
1257,0xba6a79
1258,0x0014bb
1259,0x0160fd
1260,0xfe61b0
1261,0xc62872
1262,0xde0701
1263,0x536153
1264,tinakitt‚Ä¶
1265,0x563eec
1266,shibbole‚Ä¶
1267,0x5a20c4
1268,0xbe7b9e
1269,0x4db1dd
1270,heeee.et‚Ä¶
1271,wku.eth
1272,0xaea8e3
1273,0x59f51e
1274,0x8791c7
1275,artibian‚Ä¶
1276,0x160590
1277,vitality‚Ä¶
1278,0xc130af
1279,0x8e4237
1280,0x887cb0
1281,boredpap‚Ä¶
1282,0x37e5a4
1283,brainchi‚Ä¶
1284,0xc478f2
1285,art7.eth
1286,0x302218
1287,0xb34860
1288,0x5cd25a
1289,0x76182d
1290,fq852.et‚Ä¶
1291,0x2fe285
1292,0xd2b8c7
1293,0x2afad8
1294,0x67e095
1295,0xff592d
1296,skorch.e‚Ä¶
1297,0x26737c
1298,0x710295
1299,0x9c99ad
1300,0xb39734
1301,0xb666c5
1302,kaiwahin‚Ä¶
1303,0x1288e3
1304,bull.eth
1305,0x0947ac
1306,0x641fb9
1307,0x13ea4c
1308,sunfire.‚Ä¶
1309,0xbb67d2
1310,te777.et‚Ä¶
1311,dexer.et‚Ä¶
1312,0x666d58
1313,Greekdx
1314,Mr_0x
1315,nyac.eth
1316,space-lo‚Ä¶
1317,0x9f8534
1318,0x0bc2d7
1319,cuandocr‚Ä¶
1320,0x11876d
1321,0xc47af8
1322,0xf605c6
1323,0xcb58b8
1324,thomasje‚Ä¶
1325,adamyid.‚Ä¶
1326,0x1d337f
1327,0x319d21
1328,0xb166dd
1329,0xb806e2
1330,0xdf9a1a
1331,0xd6f487
1332,0x53d293
1333,0x55b27d
1334,0x6e4122
1335,eip69420‚Ä¶
1336,0x32be14
1337,0x4baa94
1338,buckscha‚Ä¶
1339,0xb5e6ac
1340,0x158b0a
1341,coinbug.‚Ä¶
1342,0x1d3db4
1343,punk4553‚Ä¶
1344,mys.eth
1345,0xf224d5
1346,0xebf1db
1347,be90dao.‚Ä¶
1348,jckbtchr‚Ä¶
1349,0xf77813
1350,swang.et‚Ä¶
1351,0x194171
1352,punksbob‚Ä¶
1353,0xc1d1d3
1354,0xd8cb8f
1355,jakesnak‚Ä¶
1356,0xe63fed
1357,alexlion‚Ä¶
1358,grandenc‚Ä¶
1359,0x92c109
1360,qjawe.et‚Ä¶
1361,0xa397d0
1362,0xe896e5
1363,0xed345b
1364,guyzalax‚Ä¶
1365,0x31d419
1366,0x9c0a83
1367,0x955619
1368,mikethes‚Ä¶
1369,0x8721cf
1370,0xba19ba
1371,krovault‚Ä¶
1372,0x73d64b
1373,fth.eth
1374,0xb94ee0
1375,0xc714a4
1376,0x6aa71f
1377,0x561786
1378,0xa65d2a
1379,0x000000
1380,floorpro‚Ä¶
1381,0x958284
1382,0xa75b5f
1383,0x5a9c33
1384,foodi.et‚Ä¶
1385,zenecava‚Ä¶
1386,0x6b3db0
1387,ETHERNAL
